39
27
0 30 31 34 36 37 38
1 27 29 31 37 38
2 27 29 32 37 38
3 27 28 29 31 32 33 36 37 38
4 27 31 36 37
5 27 28 30 31 35 36 37 38
6 27 30 33 34 35 36 38
7 27 30 33 34 37 38
8 27 29 30 31 36 37
9 27 30 31 33 34 35 36 37 38
10 27 29 33 34 35 36 37
11 27 30 33 34 37 38
12 27 29 32 34 36 37 38
13 27 29 31 33 35 36 38
14 29 30 37
15 29 30 35 38
16 34 36
17 31
18 33 35 38
19 27 28 32 38
20
21 27 33 34 36
22 27 31 37
23 28
24 29 30 33
25
26
